SCIP version 0.82 [precision: 8 byte] [memory: block] [mode: optimized] [LP solver: SOPLEX 1.3.0]
Copyright (c) 2002-2006 Konrad-Zuse-Zentrum fuer Informationstechnik Berlin (ZIB)

reading parameter file <scip.set>

read problem </ufs/psxjm3/instances/random_2.ctt.c.zpl>
============

****************************************************
* Zuse Institute Mathematical Programming Language *
* Release 2.04  Copyright (C)2005 by Thorsten Koch *
****************************************************

original problem has 4950 variables (4950 bin, 0 int, 0 impl, 0 cont) and 1707 constraints

solve problem
=============

LP Solver <SOPLEX 1.3.0>: dual feasibility tolerance cannot be set -- tolerance of SCIP and LP solver may differ
LP Solver <SOPLEX 1.3.0>: barrier convergence tolerance cannot be set -- tolerance of SCIP and LP solver may differ
LP Solver <SOPLEX 1.3.0>: fastmip setting not available -- SCIP parameter has no effect
LP Solver <SOPLEX 1.3.0>: scaling not available -- SCIP parameter has no effect
LP Solver <SOPLEX 1.3.0>: presolving not available -- SCIP parameter has no effect
transformed problem has 4950 variables (4950 bin, 0 int, 0 impl, 0 cont) and 1707 constraints
   1707 constraints of type <linear>

presolving:
(round 1) 708 del vars, 23 del conss, 708 chg bounds, 0 chg sides, 0 chg coeffs, 0 upgd conss, 0 impls, 1305 clqs
(round 2) 708 del vars, 183 del conss, 708 chg bounds, 0 chg sides, 0 chg coeffs, 0 upgd conss, 0 impls, 1305 clqs
(round 3) 708 del vars, 970 del conss, 708 chg bounds, 794 chg sides, 0 chg coeffs, 0 upgd conss, 0 impls, 1305 clqs
(round 4) 708 del vars, 970 del conss, 708 chg bounds, 794 chg sides, 0 chg coeffs, 685 upgd conss, 0 impls, 1305 clqs
   (0.7s) probing: 100/4242 (2.4%) - 0 fixings, 0 aggregations, 0 implications, 0 bound changes
presolving (5 rounds):
 708 deleted vars, 970 deleted constraints, 708 tightened bounds, 0 added holes, 794 changed sides, 0 changed coefficients
 0 implications, 1305 cliques
presolved problem has 4242 variables (4242 bin, 0 int, 0 impl, 0 cont) and 737 constraints
    685 constraints of type <setppc>
     52 constraints of type <linear>
objective value is always integral
Presolving Time: 0.65

 time | node  | left  |LP iter| mem |mdpt |frac |vars |cons |ccons|cols |rows |cuts |confs|strbr|  dualbound   | primalbound  |  gap   
  0.8s|     1 |     0 |   595 |  13M|   0 |  14 |4242 | 737 | 737 |4242 | 737 |   0 |   0 |   0 | 0.000000e+00 |      --      |    Inf 
  0.9s|     1 |     0 |   646 |  13M|   0 |  70 |4242 | 737 | 737 |4242 | 738 |   1 |   0 |   0 | 0.000000e+00 |      --      |    Inf 
  1.0s|     1 |     0 |   663 |  13M|   0 |  70 |4242 | 737 | 737 |4242 | 740 |   3 |   0 |   0 | 0.000000e+00 |      --      |    Inf 
  1.1s|     1 |     0 |   681 |  13M|   0 |  87 |4242 | 737 | 737 |4242 | 742 |   5 |   0 |   0 | 0.000000e+00 |      --      |    Inf 
  1.2s|     1 |     0 |   682 |  13M|   0 |  87 |4242 | 737 | 737 |4242 | 743 |   6 |   0 |   0 | 0.000000e+00 |      --      |    Inf 
  1.2s|     1 |     0 |   683 |  13M|   0 |  89 |4242 | 737 | 737 |4242 | 744 |   7 |   0 |   0 | 0.000000e+00 |      --      |    Inf 
  1.3s|     1 |     0 |   685 |  13M|   0 |  90 |4242 | 737 | 737 |4242 | 746 |   9 |   0 |   0 | 0.000000e+00 |      --      |    Inf 
F 2.2s|     1 |     2 |   909 |  13M|   0 |   0 |4242 | 737 | 737 |4242 | 746 |   9 |   0 |  33 | 0.000000e+00 | 0.000000e+00 |   0.00%

SCIP Status        : problem is solved [optimal solution found]
Solving Time (sec) : 2.24
Solving Nodes      : 1
Primal Bound       : +0.00000000000000e+00 (1 solutions)
Dual Bound         : +0.00000000000000e+00
Gap                : 0.00 %

primal solution:
================

objective value:                                    0
Taught#1#1#26                                       1 	(obj:0)
Taught#1#2#7                                        1 	(obj:0)
Taught#1#3#24                                       1 	(obj:0)
Taught#1#4#14                                       1 	(obj:0)
Taught#1#5#18                                       1 	(obj:0)
Taught#1#6#6                                        1 	(obj:0)
Taught#2#1#6                                        1 	(obj:0)
Taught#2#2#24                                       1 	(obj:0)
Taught#2#3#2                                        1 	(obj:0)
Taught#2#4#14                                       1 	(obj:0)
Taught#2#5#8                                        1 	(obj:0)
Taught#2#6#33                                       1 	(obj:0)
Taught#3#1#17                                       1 	(obj:0)
Taught#3#2#2                                        1 	(obj:0)
Taught#3#3#23                                       1 	(obj:0)
Taught#3#4#11                                       1 	(obj:0)
Taught#3#5#32                                       1 	(obj:0)
Taught#3#6#30                                       1 	(obj:0)
Taught#4#1#19                                       1 	(obj:0)
Taught#4#2#32                                       1 	(obj:0)
Taught#4#3#15                                       1 	(obj:0)
Taught#4#4#23                                       1 	(obj:0)
Taught#4#5#11                                       1 	(obj:0)
Taught#4#6#9                                        1 	(obj:0)
Taught#5#1#33                                       1 	(obj:0)
Taught#5#2#7                                        1 	(obj:0)
Taught#5#3#18                                       1 	(obj:0)
Taught#5#4#15                                       1 	(obj:0)
Taught#5#5#10                                       1 	(obj:0)
Taught#5#6#20                                       1 	(obj:0)
Taught#6#1#19                                       1 	(obj:0)
Taught#6#2#33                                       1 	(obj:0)
Taught#6#3#16                                       1 	(obj:0)
Taught#6#4#22                                       1 	(obj:0)
Taught#6#5#32                                       1 	(obj:0)
Taught#6#6#1                                        1 	(obj:0)
Taught#7#1#16                                       1 	(obj:0)
Taught#7#2#22                                       1 	(obj:0)
Taught#7#3#10                                       1 	(obj:0)
Taught#7#4#30                                       1 	(obj:0)
Taught#7#5#20                                       1 	(obj:0)
Taught#7#6#1                                        1 	(obj:0)
Taught#8#1#4                                        1 	(obj:0)
Taught#8#2#30                                       1 	(obj:0)
Taught#8#3#19                                       1 	(obj:0)
Taught#8#5#27                                       1 	(obj:0)
Taught#9#1#9                                        1 	(obj:0)
Taught#9#2#19                                       1 	(obj:0)
Taught#9#5#27                                       1 	(obj:0)
Taught#9#6#3                                        1 	(obj:0)
Taught#10#1#7                                       1 	(obj:0)
Taught#10#2#12                                      1 	(obj:0)
Taught#10#3#18                                      1 	(obj:0)
Taught#10#4#31                                      1 	(obj:0)
Taught#11#2#5                                       1 	(obj:0)
Taught#11#4#13                                      1 	(obj:0)
Taught#12#1#30                                      1 	(obj:0)
Taught#12#2#18                                      1 	(obj:0)
Taught#12#3#4                                       1 	(obj:0)
Taught#12#5#21                                      1 	(obj:0)
Taught#13#1#8                                       1 	(obj:0)
Taught#13#3#25                                      1 	(obj:0)
Taught#13#6#4                                       1 	(obj:0)
Taught#14#1#28                                      1 	(obj:0)
Taught#14#6#4                                       1 	(obj:0)
Taught#15#5#5                                       1 	(obj:0)
Taught#15#6#21                                      1 	(obj:0)
Taught#16#3#26                                      1 	(obj:0)
Taught#16#4#13                                      1 	(obj:0)
Taught#16#5#29                                      1 	(obj:0)
Taught#16#6#22                                      1 	(obj:0)
Taught#17#2#26                                      1 	(obj:0)
Taught#17#5#31                                      1 	(obj:0)
Taught#17#6#17                                      1 	(obj:0)
Taught#18#3#28                                      1 	(obj:0)
Taught#18#4#3                                       1 	(obj:0)
Taught#19#4#17                                      1 	(obj:0)
Taught#19#5#25                                      1 	(obj:0)
Taught#20#1#8                                       1 	(obj:0)
Taught#21#4#29                                      1 	(obj:0)
Taught#22#1#3                                       1 	(obj:0)
Taught#22#3#32                                      1 	(obj:0)
Taught#22#4#20                                      1 	(obj:0)
Taught#22#5#6                                       1 	(obj:0)
Taught#22#6#12                                      1 	(obj:0)
Taught#23#1#11                                      1 	(obj:0)
Taught#23#2#12                                      1 	(obj:0)
Taught#23#3#20                                      1 	(obj:0)
Taught#23#4#24                                      1 	(obj:0)
Taught#23#6#26                                      1 	(obj:0)
Taught#24#1#14                                      1 	(obj:0)
Taught#24#3#25                                      1 	(obj:0)
Taught#24#4#17                                      1 	(obj:0)
Taught#24#5#9                                       1 	(obj:0)
Taught#24#6#2                                       1 	(obj:0)
Taught#25#1#9                                       1 	(obj:0)
Taught#25#2#28                                      1 	(obj:0)
Taught#25#3#23                                      1 	(obj:0)
Taught#25#4#2                                       1 	(obj:0)
Taught#25#5#12                                      1 	(obj:0)

Statistics
==========

SCIP Status        : problem is solved [optimal solution found]
Solving Time       :       2.24
Original Problem   :
  Problem name     : random_2.ctt.c.zpl
  Variables        : 4950 (4950 binary, 0 integer, 0 implicit integer, 0 continuous)
  Constraints      : 1707 initial, 1707 maximal
Presolved Problem  :
  Problem name     : t_random_2.ctt.c.zpl
  Variables        : 4242 (4242 binary, 0 integer, 0 implicit integer, 0 continuous)
  Constraints      : 737 initial, 737 maximal
Presolvers         :       Time  FixedVars   AggrVars   ChgTypes  ChgBounds   AddHoles    DelCons   ChgSides   ChgCoefs
  trivial          :       0.00          0          0          0          0          0          0          0          0
  inttobinary      :       0.00          0          0          0          0          0          0          0          0
  dualfix          :       0.00          0          0          0          0          0          0          0          0
  implics          :       0.01          0          0          0          0          0          0          0          0
  probing          :       0.46          0          0          0          0          0          0          0          0
  setppc           :       0.01          0          0          0          0          0          0          0          0
  linear           :       0.11        708          0          0        708          0        970        794          0
  root node        :          -          0          -          -          0          -          -          -          -
Constraints        :     Number  #Separate #Propagate    #EnfoLP    #EnfoPS    Cutoffs    DomReds       Cuts      Conss   Children
  integral         :          0          0          0          1          0          0          0          0          0          2
  setppc           :        685          6        201          0          0          0          0          0          0          0
  linear           :         52          6        201          0          0          0          0          0          0          0
Constraint Timings :  TotalTime   Separate  Propagate     EnfoLP     EnfoPS
  integral         :       0.76       0.00       0.00       0.76       0.00
  setppc           :       0.02       0.00       0.02       0.00       0.00
  linear           :       0.34       0.00       0.34       0.00       0.00
Propagators        :       Time      Calls    Cutoffs    DomReds
  rootredcost      :       0.00          0          0          0
  pseudoobj        :       0.00          1          0          0
Conflict Analysis  :       Time      Calls    Success  Conflicts   Literals    Reconvs ReconvLits   LP Iters
  propagation      :       0.00          0          0          0        0.0          0        0.0          -
  infeasible LP    :       0.00          0          0          0        0.0          0        0.0          0
  bound exceed. LP :       0.00          0          0          0        0.0          0        0.0          0
  strong branching :       0.00          0          0          0        0.0          0        0.0          0
  pseudo solution  :       0.00          0          0          0        0.0          0        0.0          -
  applied globally :          -          -          -          0        0.0          -          -          -
  applied locally  :          -          -          -          0        0.0          -          -          -
Separators         :       Time      Calls    Cutoffs    DomReds       Cuts      Conss
  cut pool         :       0.00          5          -          -          3          -    (maximal pool size: 9)
  redcost          :       0.01          6          0          0          0          0
  impliedbounds    :       0.02          6          0          0          0          0
  intobj           :       0.00          0          0          0          0          0
  gomory           :       0.01          6          0          0          0          0
  strongcg         :       0.00          6          0          0          0          0
  cmir             :       0.25          6          0          0          0          0
  clique           :       0.01          6          0          0          7          0
Pricers            :       Time      Calls       Vars
  problem variables:       0.00          0          0
Branching Rules    :       Time      Calls    Cutoffs    DomReds       Cuts      Conss   Children
  relpscost        :       0.76          1          0          0          0          0          2
  pscost           :       0.00          0          0          0          0          0          0
  inference        :       0.00          0          0          0          0          0          0
  mostinf          :       0.00          0          0          0          0          0          0
  leastinf         :       0.00          0          0          0          0          0          0
  fullstrong       :       0.00          0          0          0          0          0          0
  allfullstrong    :       0.00          0          0          0          0          0          0
Primal Heuristics  :       Time      Calls      Found
  LP solutions     :       0.00          -          0
  pseudo solutions :       0.00          -          0
  octane           :       0.00          0          0
  simplerounding   :       0.00          7          0
  rounding         :       0.03          7          0
  shifting         :       0.10          7          0
  fixandinfer      :       0.00          0          0
  feaspump         :       0.14          1          1
  coefdiving       :       0.00          0          0
  pscostdiving     :       0.00          0          0
  fracdiving       :       0.00          0          0
  intdiving        :       0.00          0          0
  objpscostdiving  :       0.00          0          0
  rootsoldiving    :       0.00          0          0
  linesearchdiving :       0.00          0          0
  guideddiving     :       0.00          0          0
  rins             :       0.00          0          0
  localbranching   :       0.00          0          0
  crossover        :       0.00          0          0
LP                 :       Time      Calls Iterations  Iter/call   Iter/sec
  primal LP        :       0.00          0          0       0.00          -
  dual LP          :       0.15          7        685      97.86    4566.67
  barrier LP       :       0.00          0          0       0.00          -
  diving/probing LP:       0.13          1        224     224.00    1723.08
  strong branching :       0.76         33       2099      63.61    2761.84
    (at root node) :          -         33       2099      63.61          -
  conflict analysis:       0.00          0          0       0.00          -
B&B Tree           :
  number of runs   :          1
  nodes            :          1
  nodes (total)    :          1
  nodes left       :          0
  max depth        :          0
  max depth (total):          0
  backtracks       :          0 (0.0%)
  delayed cutoffs  :          0
  repropagations   :          0 (0 domain reductions, 0 cutoffs)
  avg switch length:       2.00
  switching time   :       0.00
Solution           :
  Solutions found  :          1 (1 improvements)
  Primal Bound     : +0.00000000000000e+00   (in run 1, after 1 nodes, 2.24 seconds, depth 0, found by <feaspump>)
  Dual Bound       : +0.00000000000000e+00
  Gap              :       0.00 %
  Root Dual Bound  : +0.00000000000000e+00
cp: copying multiple files, but last argument `/home/psxjm3/' is not a directory
Try `cp --help' for more information.
